Route #1: 1 24 52 21 43 67 69 72 17
Route #2: 58 38 56 8 71 22 47 27 2
Route #3: 51 45 46 34 12 15
Route #4: 3 54 20 31 73 32 76 7
Route #5: 75 57 29 70 37 30 65
Route #6: 49 63 5 62 50 9
Route #7: 61 33 55 35 59 4 13 48
Route #8: 6 39 74 28 19 36 14 41 60 66
Route #9: 42 16 18 25 10 68 53
Route #10: 40 64 11 26 44 23 77
Cost 1270